33D32945 STP File, STP Format Version 1.0

SECTION Comments
Name "edge_n13_d3_s16"
Problem "Euclidean Steiner Tree Problem"
Remark "Generated with STPGenerator. 3 dimensions."
END

SECTION Graph
Nodes 13
END

SECTION Coordinates
DDD 0 0.2154374701 0.2154374701 0.2154374701
DDD 1 0.0895364271 0.0895364271 0.0895364271
DDD 2 0.3215230151 0.3215230151 0.3215230151
DDD 3 0.5994994997 0.5994994997 0.5994994997
DDD 4 0.9209823329 0.9209823329 0.9209823329
DDD 5 0.0083380486 0.0083380486 0.0083380486
DDD 6 0.2498201687 0.2498201687 0.2498201687
DDD 7 0.6923724262 0.6923724262 0.6923724262
DDD 8 0.3582976681 0.3582976681 0.3582976681
DDD 9 0.8231695224 0.8231695224 0.8231695224
DDD 10 0.1180784167 0.1180784167 0.1180784167
DDD 11 0.5551794663 0.5551794663 0.5551794663
DDD 12 0.3833639991 0.3833639991 0.3833639991
END
